--------------------------------------------------
s SATISFIABLE
benchmarks_SAT/INST_36x36/25/inst36x36_25_0.cnf : 12542 ms.
--------------------------------------------------
s SATISFIABLE
benchmarks_SAT/INST_36x36/25/inst36x36_25_10.cnf : 12916 ms.
--------------------------------------------------
s SATISFIABLE
benchmarks_SAT/INST_36x36/25/inst36x36_25_11.cnf : 6131 ms.
--------------------------------------------------
s SATISFIABLE
benchmarks_SAT/INST_36x36/25/inst36x36_25_12.cnf : 5891 ms.
--------------------------------------------------
s SATISFIABLE
benchmarks_SAT/INST_36x36/25/inst36x36_25_13.cnf : 10580 ms.
--------------------------------------------------
s SATISFIABLE
benchmarks_SAT/INST_36x36/25/inst36x36_25_14.cnf : 10378 ms.
--------------------------------------------------
s SATISFIABLE
benchmarks_SAT/INST_36x36/25/inst36x36_25_15.cnf : 27770 ms.
--------------------------------------------------
s SATISFIABLE
benchmarks_SAT/INST_36x36/25/inst36x36_25_16.cnf : 5993 ms.
--------------------------------------------------
s SATISFIABLE
benchmarks_SAT/INST_36x36/25/inst36x36_25_17.cnf : 12409 ms.
--------------------------------------------------
s SATISFIABLE
benchmarks_SAT/INST_36x36/25/inst36x36_25_18.cnf : 16671 ms.
--------------------------------------------------
s SATISFIABLE
benchmarks_SAT/INST_36x36/25/inst36x36_25_19.cnf : 8153 ms.
--------------------------------------------------
s SATISFIABLE
benchmarks_SAT/INST_36x36/25/inst36x36_25_1.cnf : 22130 ms.
--------------------------------------------------
s SATISFIABLE
benchmarks_SAT/INST_36x36/25/inst36x36_25_20.cnf : 10456 ms.
--------------------------------------------------
s SATISFIABLE
benchmarks_SAT/INST_36x36/25/inst36x36_25_21.cnf : 11389 ms.
--------------------------------------------------
s SATISFIABLE
benchmarks_SAT/INST_36x36/25/inst36x36_25_22.cnf : 6264 ms.
--------------------------------------------------
s SATISFIABLE
benchmarks_SAT/INST_36x36/25/inst36x36_25_23.cnf : 12378 ms.
--------------------------------------------------
s SATISFIABLE
benchmarks_SAT/INST_36x36/25/inst36x36_25_24.cnf : 17659 ms.
--------------------------------------------------
s SATISFIABLE
benchmarks_SAT/INST_36x36/25/inst36x36_25_25.cnf : 3566 ms.
--------------------------------------------------
s SATISFIABLE
benchmarks_SAT/INST_36x36/25/inst36x36_25_26.cnf : 6602 ms.
--------------------------------------------------
s SATISFIABLE
benchmarks_SAT/INST_36x36/25/inst36x36_25_27.cnf : 9592 ms.
--------------------------------------------------
s SATISFIABLE
benchmarks_SAT/INST_36x36/25/inst36x36_25_28.cnf : 18058 ms.
--------------------------------------------------
s SATISFIABLE
benchmarks_SAT/INST_36x36/25/inst36x36_25_29.cnf : 3656 ms.
--------------------------------------------------
s SATISFIABLE
benchmarks_SAT/INST_36x36/25/inst36x36_25_2.cnf : 8650 ms.
--------------------------------------------------
s SATISFIABLE
benchmarks_SAT/INST_36x36/25/inst36x36_25_30.cnf : 3839 ms.
--------------------------------------------------
s SATISFIABLE
benchmarks_SAT/INST_36x36/25/inst36x36_25_31.cnf : 5845 ms.
--------------------------------------------------
s SATISFIABLE
benchmarks_SAT/INST_36x36/25/inst36x36_25_32.cnf : 16663 ms.
--------------------------------------------------
s SATISFIABLE
benchmarks_SAT/INST_36x36/25/inst36x36_25_33.cnf : 13335 ms.
--------------------------------------------------
s SATISFIABLE
benchmarks_SAT/INST_36x36/25/inst36x36_25_34.cnf : 7925 ms.
--------------------------------------------------
s SATISFIABLE
benchmarks_SAT/INST_36x36/25/inst36x36_25_35.cnf : 22553 ms.
--------------------------------------------------
s SATISFIABLE
benchmarks_SAT/INST_36x36/25/inst36x36_25_36.cnf : 15958 ms.
--------------------------------------------------
s SATISFIABLE
benchmarks_SAT/INST_36x36/25/inst36x36_25_37.cnf : 13951 ms.
--------------------------------------------------
s SATISFIABLE
benchmarks_SAT/INST_36x36/25/inst36x36_25_38.cnf : 9225 ms.
--------------------------------------------------
s SATISFIABLE
benchmarks_SAT/INST_36x36/25/inst36x36_25_39.cnf : 6872 ms.
--------------------------------------------------
s SATISFIABLE
benchmarks_SAT/INST_36x36/25/inst36x36_25_3.cnf : 37312 ms.
--------------------------------------------------
s SATISFIABLE
benchmarks_SAT/INST_36x36/25/inst36x36_25_40.cnf : 4272 ms.
--------------------------------------------------
s SATISFIABLE
benchmarks_SAT/INST_36x36/25/inst36x36_25_41.cnf : 17193 ms.
--------------------------------------------------
s SATISFIABLE
benchmarks_SAT/INST_36x36/25/inst36x36_25_42.cnf : 10400 ms.
--------------------------------------------------
s SATISFIABLE
benchmarks_SAT/INST_36x36/25/inst36x36_25_43.cnf : 18115 ms.
--------------------------------------------------
s SATISFIABLE
benchmarks_SAT/INST_36x36/25/inst36x36_25_44.cnf : 9045 ms.
--------------------------------------------------
s SATISFIABLE
benchmarks_SAT/INST_36x36/25/inst36x36_25_45.cnf : 11828 ms.
--------------------------------------------------
s SATISFIABLE
benchmarks_SAT/INST_36x36/25/inst36x36_25_46.cnf : 9678 ms.
--------------------------------------------------
s SATISFIABLE
benchmarks_SAT/INST_36x36/25/inst36x36_25_47.cnf : 6043 ms.
--------------------------------------------------
s SATISFIABLE
benchmarks_SAT/INST_36x36/25/inst36x36_25_48.cnf : 8630 ms.
--------------------------------------------------
s SATISFIABLE
benchmarks_SAT/INST_36x36/25/inst36x36_25_49.cnf : 11175 ms.
--------------------------------------------------
s SATISFIABLE
benchmarks_SAT/INST_36x36/25/inst36x36_25_4.cnf : 11279 ms.
--------------------------------------------------
s SATISFIABLE
benchmarks_SAT/INST_36x36/25/inst36x36_25_50.cnf : 11593 ms.
--------------------------------------------------
s SATISFIABLE
benchmarks_SAT/INST_36x36/25/inst36x36_25_51.cnf : 9117 ms.
--------------------------------------------------
s SATISFIABLE
benchmarks_SAT/INST_36x36/25/inst36x36_25_52.cnf : 17423 ms.
--------------------------------------------------
s SATISFIABLE
benchmarks_SAT/INST_36x36/25/inst36x36_25_53.cnf : 5814 ms.
--------------------------------------------------
s SATISFIABLE
benchmarks_SAT/INST_36x36/25/inst36x36_25_54.cnf : 15057 ms.
--------------------------------------------------
s SATISFIABLE
benchmarks_SAT/INST_36x36/25/inst36x36_25_55.cnf : 5504 ms.
--------------------------------------------------
s SATISFIABLE
benchmarks_SAT/INST_36x36/25/inst36x36_25_56.cnf : 10563 ms.
--------------------------------------------------
s SATISFIABLE
benchmarks_SAT/INST_36x36/25/inst36x36_25_57.cnf : 22440 ms.
--------------------------------------------------
s SATISFIABLE
benchmarks_SAT/INST_36x36/25/inst36x36_25_58.cnf : 7218 ms.
--------------------------------------------------
s SATISFIABLE
benchmarks_SAT/INST_36x36/25/inst36x36_25_59.cnf : 11248 ms.
--------------------------------------------------
s SATISFIABLE
benchmarks_SAT/INST_36x36/25/inst36x36_25_5.cnf : 10153 ms.
--------------------------------------------------
s SATISFIABLE
benchmarks_SAT/INST_36x36/25/inst36x36_25_60.cnf : 10978 ms.
--------------------------------------------------
s SATISFIABLE
benchmarks_SAT/INST_36x36/25/inst36x36_25_61.cnf : 21072 ms.
--------------------------------------------------
s SATISFIABLE
benchmarks_SAT/INST_36x36/25/inst36x36_25_62.cnf : 4440 ms.
--------------------------------------------------
s SATISFIABLE
benchmarks_SAT/INST_36x36/25/inst36x36_25_63.cnf : 23409 ms.
--------------------------------------------------
s SATISFIABLE
benchmarks_SAT/INST_36x36/25/inst36x36_25_64.cnf : 8369 ms.
--------------------------------------------------
s SATISFIABLE
benchmarks_SAT/INST_36x36/25/inst36x36_25_65.cnf : 6712 ms.
--------------------------------------------------
s SATISFIABLE
benchmarks_SAT/INST_36x36/25/inst36x36_25_66.cnf : 4609 ms.
--------------------------------------------------
s SATISFIABLE
benchmarks_SAT/INST_36x36/25/inst36x36_25_67.cnf : 11801 ms.
--------------------------------------------------
s SATISFIABLE
benchmarks_SAT/INST_36x36/25/inst36x36_25_68.cnf : 7689 ms.
--------------------------------------------------
s SATISFIABLE
benchmarks_SAT/INST_36x36/25/inst36x36_25_69.cnf : 2753 ms.
--------------------------------------------------
s SATISFIABLE
benchmarks_SAT/INST_36x36/25/inst36x36_25_6.cnf : 18058 ms.
--------------------------------------------------
s SATISFIABLE
benchmarks_SAT/INST_36x36/25/inst36x36_25_70.cnf : 13053 ms.
--------------------------------------------------
s SATISFIABLE
benchmarks_SAT/INST_36x36/25/inst36x36_25_71.cnf : 10558 ms.
--------------------------------------------------
s SATISFIABLE
benchmarks_SAT/INST_36x36/25/inst36x36_25_72.cnf : 10390 ms.
--------------------------------------------------
s SATISFIABLE
benchmarks_SAT/INST_36x36/25/inst36x36_25_73.cnf : 11024 ms.
--------------------------------------------------
s SATISFIABLE
benchmarks_SAT/INST_36x36/25/inst36x36_25_74.cnf : 9607 ms.
--------------------------------------------------
s SATISFIABLE
benchmarks_SAT/INST_36x36/25/inst36x36_25_75.cnf : 11012 ms.
--------------------------------------------------
s SATISFIABLE
benchmarks_SAT/INST_36x36/25/inst36x36_25_76.cnf : 8825 ms.
--------------------------------------------------
s SATISFIABLE
benchmarks_SAT/INST_36x36/25/inst36x36_25_77.cnf : 28146 ms.
--------------------------------------------------
s SATISFIABLE
benchmarks_SAT/INST_36x36/25/inst36x36_25_78.cnf : 9458 ms.
--------------------------------------------------
s SATISFIABLE
benchmarks_SAT/INST_36x36/25/inst36x36_25_79.cnf : 6298 ms.
--------------------------------------------------
s SATISFIABLE
benchmarks_SAT/INST_36x36/25/inst36x36_25_7.cnf : 24927 ms.
--------------------------------------------------
s SATISFIABLE
benchmarks_SAT/INST_36x36/25/inst36x36_25_80.cnf : 6577 ms.
--------------------------------------------------
s SATISFIABLE
benchmarks_SAT/INST_36x36/25/inst36x36_25_81.cnf : 10286 ms.
--------------------------------------------------
s SATISFIABLE
benchmarks_SAT/INST_36x36/25/inst36x36_25_82.cnf : 11757 ms.
--------------------------------------------------
s SATISFIABLE
benchmarks_SAT/INST_36x36/25/inst36x36_25_83.cnf : 19202 ms.
--------------------------------------------------
s SATISFIABLE
benchmarks_SAT/INST_36x36/25/inst36x36_25_84.cnf : 7971 ms.
--------------------------------------------------
s SATISFIABLE
benchmarks_SAT/INST_36x36/25/inst36x36_25_85.cnf : 25412 ms.
--------------------------------------------------
s SATISFIABLE
benchmarks_SAT/INST_36x36/25/inst36x36_25_86.cnf : 14180 ms.
--------------------------------------------------
s SATISFIABLE
benchmarks_SAT/INST_36x36/25/inst36x36_25_87.cnf : 23363 ms.
--------------------------------------------------
s SATISFIABLE
benchmarks_SAT/INST_36x36/25/inst36x36_25_88.cnf : 18857 ms.
--------------------------------------------------
s SATISFIABLE
benchmarks_SAT/INST_36x36/25/inst36x36_25_89.cnf : 9824 ms.
--------------------------------------------------
s SATISFIABLE
benchmarks_SAT/INST_36x36/25/inst36x36_25_8.cnf : 7117 ms.
--------------------------------------------------
s SATISFIABLE
benchmarks_SAT/INST_36x36/25/inst36x36_25_90.cnf : 10811 ms.
--------------------------------------------------
s SATISFIABLE
benchmarks_SAT/INST_36x36/25/inst36x36_25_91.cnf : 10612 ms.
--------------------------------------------------
s SATISFIABLE
benchmarks_SAT/INST_36x36/25/inst36x36_25_92.cnf : 22980 ms.
--------------------------------------------------
s SATISFIABLE
benchmarks_SAT/INST_36x36/25/inst36x36_25_93.cnf : 10236 ms.
--------------------------------------------------
s SATISFIABLE
benchmarks_SAT/INST_36x36/25/inst36x36_25_94.cnf : 9402 ms.
--------------------------------------------------
s SATISFIABLE
benchmarks_SAT/INST_36x36/25/inst36x36_25_95.cnf : 10891 ms.
--------------------------------------------------
s SATISFIABLE
benchmarks_SAT/INST_36x36/25/inst36x36_25_96.cnf : 19661 ms.
--------------------------------------------------
s SATISFIABLE
benchmarks_SAT/INST_36x36/25/inst36x36_25_97.cnf : 12566 ms.
--------------------------------------------------
s SATISFIABLE
benchmarks_SAT/INST_36x36/25/inst36x36_25_98.cnf : 23881 ms.
--------------------------------------------------
s SATISFIABLE
benchmarks_SAT/INST_36x36/25/inst36x36_25_99.cnf : 6973 ms.
--------------------------------------------------
s SATISFIABLE
benchmarks_SAT/INST_36x36/25/inst36x36_25_9.cnf : 8227 ms.
